unsat
(forall ((A (_ BitVec 1))
         (B (_ BitVec 1))
         (C (_ BitVec 1))
         (D (_ BitVec 1))
         (E (_ BitVec 256))
         (F (_ BitVec 1))
         (G (_ BitVec 1))
         (H (_ BitVec 256))
         (I (_ BitVec 1))
         (J (_ BitVec 256))
         (K (_ BitVec 1))
         (L (_ BitVec 1))
         (M (_ BitVec 3))
         (N (_ BitVec 13))
         (O (_ BitVec 1))
         (P (_ BitVec 1))
         (Q (_ BitVec 1))
         (R (_ BitVec 1))
         (S (_ BitVec 3)))
  (! (let ((a!1 (and (or (= C #b0) (= E H) (not ((_ bit2bool 0) G)))
                     (= I #b1)
                     (or (not (= D #b0)) (= E H) (not ((_ bit2bool 0) G))))))
       (= (INV!slice!1 A B C D E F G H I J K L M N O P Q R S) a!1))
     :weight 0))
